90 4005
1 2 257
1 3 5
1 4 32
1 5 259
1 6 87
1 7 140
1 8 192
1 9 268
1 10 264
1 11 152
1 12 94
1 13 263
1 14 129
1 15 118
1 16 206
1 17 45
1 18 60
1 19 162
1 20 179
1 21 224
1 22 252
1 23 224
1 24 104
1 25 109
1 26 260
1 27 263
1 28 140
1 29 204
1 30 97
1 31 245
1 32 160
1 33 12
1 34 116
1 35 249
1 36 244
1 37 193
1 38 257
1 39 202
1 40 145
1 41 17
1 42 266
1 43 25
1 44 175
1 45 125
1 46 258
1 47 102
1 48 130
1 49 31
1 50 5
1 51 171
1 52 260
1 53 202
1 54 130
1 55 251
1 56 172
1 57 139
1 58 83
1 59 71
1 60 219
1 61 145
1 62 5
1 63 236
1 64 215
1 65 95
1 66 60
1 67 167
1 68 132
1 69 91
1 70 262
1 71 220
1 72 148
1 73 172
1 74 222
1 75 266
1 76 153
1 77 34
1 78 116
1 79 170
1 80 147
1 81 232
1 82 93
1 83 210
1 84 43
1 85 57
1 86 3
1 87 264
1 88 144
1 89 32
1 90 48
2 3 190
2 4 205
2 5 209
2 6 98
2 7 107
2 8 92
2 9 156
2 10 237
2 11 115
2 12 212
2 13 184
2 14 164
2 15 258
2 16 37
2 17 85
2 18 27
2 19 166
2 20 151
2 21 64
2 22 209
2 23 211
2 24 44
2 25 109
2 26 79
2 27 2
2 28 163
2 29 35
2 30 209
2 31 265
2 32 222
2 33 257
2 34 120
2 35 260
2 36 142
2 37 139
2 38 269
2 39 123
2 40 5
2 41 183
2 42 187
2 43 122
2 44 70
2 45 92
2 46 204
2 47 111
2 48 56
2 49 22
2 50 207
2 51 156
2 52 118
2 53 18
2 54 151
2 55 70
2 56 140
2 57 213
2 58 101
2 59 3
2 60 44
2 61 160
2 62 105
2 63 190
2 64 69
2 65 76
2 66 195
2 67 196
2 68 185
2 69 70
2 70 29
2 71 203
2 72 204
2 73 64
2 74 146
2 75 169
2 76 78
2 77 82
2 78 250
2 79 106
2 80 153
2 81 156
2 82 251
2 83 135
2 84 5
2 85 48
2 86 173
2 87 59
2 88 267
2 89 176
2 90 243
3 4 198
3 5 54
3 6 85
3 7 27
3 8 85
3 9 234
3 10 114
3 11 197
3 12 260
3 13 99
3 14 186
3 15 151
3 16 96
3 17 123
3 18 36
3 19 52
3 20 32
3 21 180
3 22 223
3 23 214
3 24 8
3 25 32
3 26 250
3 27 37
3 28 241
3 29 180
3 30 0
3 31 32
3 32 68
3 33 66
3 34 3
3 35 48
3 36 135
3 37 198
3 38 200
3 39 198
3 40 25
3 41 239
3 42 214
3 43 144
3 44 252
3 45 124
3 46 227
3 47 140
3 48 43
3 49 169
3 50 116
3 51 43
3 52 87
3 53 78
3 54 90
3 55 154
3 56 129
3 57 245
3 58 24
3 59 32
3 60 223
3 61 40
3 62 55
3 63 214
3 64 8
3 65 65
3 66 90
3 67 102
3 68 13
3 69 75
3 70 84
3 71 165
3 72 186
3 73 32
3 74 50
3 75 167
3 76 150
3 77 239
3 78 80
3 79 251
3 80 217
3 81 43
3 82 203
3 83 211
3 84 165
3 85 242
3 86 69
3 87 191
3 88 151
3 89 33
3 90 265
4 5 241
4 6 200
4 7 33
4 8 22
4 9 14
4 10 216
4 11 254
4 12 43
4 13 182
4 14 94
4 15 162
4 16 175
4 17 266
4 18 45
4 19 99
4 20 39
4 21 92
4 22 193
4 23 145
4 24 266
4 25 124
4 26 30
4 27 156
4 28 130
4 29 224
4 30 84
4 31 52
4 32 3
4 33 102
4 34 8
4 35 51
4 36 9
4 37 248
4 38 196
4 39 197
4 40 169
4 41 180
4 42 188
4 43 110
4 44 72
4 45 184
4 46 176
4 47 232
4 48 203
4 49 104
4 50 9
4 51 43
4 52 184
4 53 245
4 54 201
4 55 109
4 56 6
4 57 173
4 58 90
4 59 213
4 60 251
4 61 227
4 62 9
4 63 121
4 64 108
4 65 267
4 66 180
4 67 94
4 68 263
4 69 153
4 70 255
4 71 71
4 72 187
4 73 92
4 74 64
4 75 252
4 76 72
4 77 171
4 78 32
4 79 120
4 80 67
4 81 166
4 82 156
4 83 1
4 84 81
4 85 66
4 86 246
4 87 134
4 88 69
4 89 2
4 90 45
5 6 177
5 7 98
5 8 229
5 9 235
5 10 69
5 11 7
5 12 153
5 13 149
5 14 96
5 15 221
5 16 20
5 17 101
5 18 96
5 19 5
5 20 75
5 21 112
5 22 169
5 23 259
5 24 194
5 25 37
5 26 9
5 27 118
5 28 79
5 29 9
5 30 259
5 31 153
5 32 237
5 33 36
5 34 149
5 35 43
5 36 34
5 37 136
5 38 47
5 39 182
5 40 57
5 41 71
5 42 70
5 43 117
5 44 253
5 45 97
5 46 238
5 47 169
5 48 163
5 49 69
5 50 112
5 51 78
5 52 52
5 53 43
5 54 214
5 55 72
5 56 115
5 57 14
5 58 157
5 59 151
5 60 176
5 61 178
5 62 170
5 63 64
5 64 103
5 65 165
5 66 110
5 67 80
5 68 71
5 69 108
5 70 95
5 71 249
5 72 94
5 73 196
5 74 125
5 75 187
5 76 109
5 77 180
5 78 198
5 79 32
5 80 82
5 81 101
5 82 157
5 83 83
5 84 198
5 85 57
5 86 73
5 87 18
5 88 211
5 89 213
5 90 67
6 7 25
6 8 197
6 9 214
6 10 189
6 11 116
6 12 241
6 13 39
6 14 88
6 15 252
6 16 75
6 17 94
6 18 215
6 19 159
6 20 208
6 21 15
6 22 12
6 23 249
6 24 15
6 25 32
6 26 165
6 27 121
6 28 188
6 29 19
6 30 185
6 31 97
6 32 127
6 33 44
6 34 10
6 35 35
6 36 79
6 37 245
6 38 121
6 39 186
6 40 143
6 41 34
6 42 17
6 43 254
6 44 247
6 45 98
6 46 20
6 47 11
6 48 178
6 49 39
6 50 269
6 51 15
6 52 13
6 53 201
6 54 206
6 55 56
6 56 8
6 57 121
6 58 26
6 59 191
6 60 56
6 61 197
6 62 10
6 63 152
6 64 97
6 65 172
6 66 251
6 67 164
6 68 89
6 69 232
6 70 178
6 71 111
6 72 188
6 73 116
6 74 44
6 75 56
6 76 91
6 77 3
6 78 268
6 79 53
6 80 19
6 81 217
6 82 148
6 83 197
6 84 225
6 85 84
6 86 25
6 87 204
6 88 209
6 89 215
6 90 64
7 8 125
7 9 10
7 10 15
7 11 225
7 12 150
7 13 221
7 14 4
7 15 195
7 16 238
7 17 174
7 18 207
7 19 257
7 20 42
7 21 188
7 22 243
7 23 75
7 24 65
7 25 198
7 26 129
7 27 171
7 28 104
7 29 172
7 30 164
7 31 254
7 32 77
7 33 103
7 34 148
7 35 87
7 36 178
7 37 37
7 38 131
7 39 247
7 40 26
7 41 66
7 42 161
7 43 143
7 44 109
7 45 197
7 46 73
7 47 226
7 48 172
7 49 135
7 50 263
7 51 58
7 52 81
7 53 132
7 54 62
7 55 251
7 56 182
7 57 40
7 58 171
7 59 104
7 60 146
7 61 152
7 62 227
7 63 170
7 64 125
7 65 268
7 66 97
7 67 150
7 68 209
7 69 197
7 70 147
7 71 110
7 72 126
7 73 80
7 74 85
7 75 250
7 76 39
7 77 53
7 78 68
7 79 124
7 80 71
7 81 210
7 82 223
7 83 152
7 84 73
7 85 256
7 86 239
7 87 266
7 88 75
7 89 133
7 90 196
8 9 178
8 10 28
8 11 78
8 12 188
8 13 220
8 14 26
8 15 35
8 16 225
8 17 58
8 18 104
8 19 202
8 20 201
8 21 76
8 22 47
8 23 68
8 24 148
8 25 114
8 26 57
8 27 230
8 28 242
8 29 152
8 30 182
8 31 65
8 32 146
8 33 105
8 34 46
8 35 103
8 36 215
8 37 79
8 38 234
8 39 116
8 40 196
8 41 68
8 42 108
8 43 22
8 44 206
8 45 153
8 46 83
8 47 43
8 48 263
8 49 188
8 50 91
8 51 201
8 52 40
8 53 148
8 54 33
8 55 69
8 56 231
8 57 15
8 58 86
8 59 161
8 60 207
8 61 44
8 62 267
8 63 249
8 64 134
8 65 43
8 66 145
8 67 123
8 68 163
8 69 212
8 70 204
8 71 225
8 72 16
8 73 92
8 74 153
8 75 66
8 76 206
8 77 106
8 78 174
8 79 247
8 80 16
8 81 144
8 82 44
8 83 144
8 84 4
8 85 75
8 86 11
8 87 50
8 88 3
8 89 110
8 90 164
9 10 13
9 11 18
9 12 183
9 13 182
9 14 245
9 15 202
9 16 96
9 17 177
9 18 125
9 19 82
9 20 231
9 21 0
9 22 169
9 23 7
9 24 167
9 25 140
9 26 137
9 27 28
9 28 208
9 29 228
9 30 209
9 31 109
9 32 73
9 33 20
9 34 264
9 35 263
9 36 164
9 37 135
9 38 20
9 39 2
9 40 26
9 41 194
9 42 57
9 43 0
9 44 177
9 45 113
9 46 207
9 47 204
9 48 172
9 49 257
9 50 50
9 51 47
9 52 53
9 53 188
9 54 10
9 55 258
9 56 3
9 57 172
9 58 149
9 59 236
9 60 101
9 61 128
9 62 47
9 63 135
9 64 160
9 65 42
9 66 170
9 67 188
9 68 199
9 69 52
9 70 152
9 71 119
9 72 100
9 73 159
9 74 90
9 75 75
9 76 30
9 77 82
9 78 164
9 79 155
9 80 186
9 81 214
9 82 113
9 83 32
9 84 7
9 85 156
9 86 202
9 87 249
9 88 243
9 89 20
9 90 242
10 11 104
10 12 54
10 13 87
10 14 188
10 15 28
10 16 147
10 17 100
10 18 175
10 19 148
10 20 99
10 21 214
10 22 269
10 23 123
10 24 177
10 25 23
10 26 224
10 27 171
10 28 207
10 29 10
10 30 110
10 31 110
10 32 70
10 33 21
10 34 210
10 35 213
10 36 73
10 37 1
10 38 76
10 39 215
10 40 247
10 41 120
10 42 13
10 43 100
10 44 132
10 45 27
10 46 220
10 47 263
10 48 177
10 49 157
10 50 189
10 51 233
10 52 243
10 53 210
10 54 57
10 55 237
10 56 118
10 57 236
10 58 99
10 59 121
10 60 85
10 61 186
10 62 19
10 63 77
10 64 216
10 65 26
10 66 205
10 67 206
10 68 239
10 69 225
10 70 185
10 71 119
10 72 63
10 73 160
10 74 223
10 75 206
10 76 76
10 77 112
10 78 145
10 79 162
10 80 226
10 81 54
10 82 222
10 83 233
10 84 90
10 85 29
10 86 266
10 87 157
10 88 6
10 89 254
10 90 204
11 12 153
11 13 39
11 14 97
11 15 130
11 16 34
11 17 17
11 18 263
11 19 168
11 20 89
11 21 249
11 22 200
11 23 126
11 24 225
11 25 234
11 26 82
11 27 67
11 28 2
11 29 185
11 30 160
11 31 8
11 32 147
11 33 85
11 34 77
11 35 166
11 36 59
11 37 164
11 38 109
11 39 149
11 40 54
11 41 227
11 42 109
11 43 73
11 44 72
11 45 69
11 46 56
11 47 231
11 48 194
11 49 214
11 50 99
11 51 95
11 52 94
11 53 53
11 54 92
11 55 213
11 56 31
11 57 178
11 58 43
11 59 162
11 60 101
11 61 125
11 62 173
11 63 136
11 64 116
11 65 173
11 66 47
11 67 102
11 68 32
11 69 141
11 70 216
11 71 149
11 72 12
11 73 268
11 74 174
11 75 32
11 76 144
11 77 170
11 78 222
11 79 172
11 80 43
11 81 171
11 82 146
11 83 264
11 84 203
11 85 82
11 86 87
11 87 179
11 88 67
11 89 9
11 90 199
12 13 149
12 14 206
12 15 130
12 16 200
12 17 101
12 18 247
12 19 199
12 20 207
12 21 176
12 22 206
12 23 212
12 24 101
12 25 48
12 26 34
12 27 144
12 28 234
12 29 160
12 30 195
12 31 61
12 32 126
12 33 54
12 34 89
12 35 15
12 36 223
12 37 131
12 38 223
12 39 79
12 40 50
12 41 23
12 42 11
12 43 94
12 44 53
12 45 155
12 46 47
12 47 266
12 48 208
12 49 263
12 50 268
12 51 3
12 52 20
12 53 13
12 54 53
12 55 13
12 56 238
12 57 155
12 58 29
12 59 251
12 60 90
12 61 250
12 62 64
12 63 146
12 64 39
12 65 232
12 66 255
12 67 67
12 68 249
12 69 45
12 70 87
12 71 216
12 72 207
12 73 48
12 74 180
12 75 202
12 76 77
12 77 25
12 78 42
12 79 78
12 80 247
12 81 134
12 82 206
12 83 243
12 84 18
12 85 15
12 86 180
12 87 47
12 88 142
12 89 228
12 90 12
13 14 51
13 15 242
13 16 226
13 17 64
13 18 111
13 19 151
13 20 240
13 21 104
13 22 47
13 23 232
13 24 43
13 25 36
13 26 72
13 27 80
13 28 140
13 29 179
13 30 208
13 31 259
13 32 257
13 33 5
13 34 180
13 35 164
13 36 264
13 37 133
13 38 196
13 39 198
13 40 228
13 41 254
13 42 238
13 43 162
13 44 94
13 45 80
13 46 77
13 47 66
13 48 4
13 49 207
13 50 143
13 51 199
13 52 96
13 53 155
13 54 245
13 55 158
13 56 102
13 57 199
13 58 68
13 59 114
13 60 59
13 61 171
13 62 171
13 63 193
13 64 243
13 65 47
13 66 99
13 67 166
13 68 57
13 69 250
13 70 65
13 71 164
13 72 25
13 73 168
13 74 42
13 75 246
13 76 16
13 77 59
13 78 255
13 79 6
13 80 78
13 81 163
13 82 90
13 83 64
13 84 104
13 85 223
13 86 249
13 87 89
13 88 193
13 89 267
13 90 224
14 15 21
14 16 185
14 17 137
14 18 213
14 19 62
14 20 107
14 21 239
14 22 188
14 23 125
14 24 252
14 25 144
14 26 89
14 27 269
14 28 191
14 29 53
14 30 155
14 31 112
14 32 168
14 33 94
14 34 242
14 35 259
14 36 9
14 37 140
14 38 64
14 39 261
14 40 41
14 41 252
14 42 85
14 43 77
14 44 138
14 45 38
14 46 200
14 47 24
14 48 85
14 49 141
14 50 218
14 51 153
14 52 198
14 53 20
14 54 248
14 55 209
14 56 112
14 57 54
14 58 44
14 59 23
14 60 5
14 61 255
14 62 112
14 63 210
14 64 154
14 65 9
14 66 61
14 67 10
14 68 99
14 69 175
14 70 158
14 71 246
14 72 9
14 73 191
14 74 108
14 75 263
14 76 93
14 77 0
14 78 264
14 79 88
14 80 203
14 81 152
14 82 242
14 83 114
14 84 210
14 85 77
14 86 126
14 87 154
14 88 245
14 89 188
14 90 66
15 16 62
15 17 117
15 18 111
15 19 153
15 20 190
15 21 69
15 22 136
15 23 244
15 24 254
15 25 166
15 26 165
15 27 260
15 28 139
15 29 135
15 30 202
15 31 104
15 32 0
15 33 221
15 34 220
15 35 248
15 36 118
15 37 22
15 38 171
15 39 166
15 40 4
15 41 156
15 42 234
15 43 265
15 44 243
15 45 218
15 46 249
15 47 217
15 48 117
15 49 179
15 50 138
15 51 123
15 52 28
15 53 134
15 54 175
15 55 156
15 56 162
15 57 166
15 58 235
15 59 5
15 60 161
15 61 56
15 62 7
15 63 91
15 64 7
15 65 234
15 66 6
15 67 31
15 68 69
15 69 126
15 70 93
15 71 248
15 72 245
15 73 4
15 74 220
15 75 86
15 76 20
15 77 82
15 78 29
15 79 132
15 80 249
15 81 77
15 82 146
15 83 25
15 84 223
15 85 253
15 86 24
15 87 92
15 88 32
15 89 126
15 90 68
16 17 235
16 18 41
16 19 241
16 20 35
16 21 236
16 22 183
16 23 213
16 24 152
16 25 170
16 26 36
16 27 191
16 28 140
16 29 66
16 30 177
16 31 7
16 32 239
16 33 265
16 34 60
16 35 88
16 36 216
16 37 252
16 38 241
16 39 226
16 40 103
16 41 168
16 42 66
16 43 52
16 44 197
16 45 16
16 46 154
16 47 95
16 48 161
16 49 28
16 50 172
16 51 165
16 52 116
16 53 112
16 54 133
16 55 33
16 56 233
16 57 86
16 58 241
16 59 261
16 60 109
16 61 32
16 62 246
16 63 74
16 64 141
16 65 16
16 66 3
16 67 197
16 68 205
16 69 171
16 70 203
16 71 55
16 72 142
16 73 103
16 74 211
16 75 16
16 76 135
16 77 229
16 78 203
16 79 245
16 80 170
16 81 70
16 82 253
16 83 76
16 84 228
16 85 18
16 86 8
16 87 30
16 88 142
16 89 241
16 90 185
17 18 131
17 19 153
17 20 154
17 21 78
17 22 228
17 23 157
17 24 76
17 25 98
17 26 85
17 27 169
17 28 167
17 29 116
17 30 63
17 31 100
17 32 101
17 33 255
17 34 262
17 35 37
17 36 91
17 37 196
17 38 97
17 39 26
17 40 104
17 41 53
17 42 4
17 43 123
17 44 54
17 45 148
17 46 172
17 47 36
17 48 32
17 49 186
17 50 114
17 51 155
17 52 54
17 53 87
17 54 122
17 55 185
17 56 195
17 57 192
17 58 32
17 59 215
17 60 189
17 61 186
17 62 163
17 63 138
17 64 106
17 65 255
17 66 66
17 67 228
17 68 231
17 69 25
17 70 61
17 71 44
17 72 49
17 73 103
17 74 178
17 75 264
17 76 138
17 77 109
17 78 108
17 79 5
17 80 103
17 81 147
17 82 25
17 83 127
17 84 19
17 85 15
17 86 147
17 87 103
17 88 233
17 89 46
17 90 40
18 19 227
18 20 266
18 21 20
18 22 169
18 23 110
18 24 203
18 25 181
18 26 210
18 27 192
18 28 145
18 29 157
18 30 132
18 31 141
18 32 154
18 33 27
18 34 252
18 35 28
18 36 0
18 37 7
18 38 187
18 39 243
18 40 232
18 41 211
18 42 94
18 43 162
18 44 181
18 45 93
18 46 185
18 47 63
18 48 114
18 49 41
18 50 190
18 51 143
18 52 96
18 53 198
18 54 236
18 55 9
18 56 233
18 57 56
18 58 109
18 59 205
18 60 66
18 61 83
18 62 166
18 63 233
18 64 247
18 65 126
18 66 147
18 67 134
18 68 190
18 69 116
18 70 219
18 71 149
18 72 173
18 73 173
18 74 233
18 75 70
18 76 200
18 77 17
18 78 228
18 79 151
18 80 246
18 81 251
18 82 45
18 83 264
18 84 39
18 85 161
18 86 103
18 87 232
18 88 4
18 89 132
18 90 229
19 20 1
19 21 88
19 22 169
19 23 262
19 24 246
19 25 36
19 26 156
19 27 99
19 28 87
19 29 135
19 30 117
19 31 73
19 32 120
19 33 127
19 34 217
19 35 232
19 36 180
19 37 44
19 38 216
19 39 142
19 40 95
19 41 243
19 42 169
19 43 190
19 44 135
19 45 146
19 46 137
19 47 11
19 48 100
19 49 269
19 50 113
19 51 37
19 52 143
19 53 205
19 54 114
19 55 114
19 56 264
19 57 205
19 58 5
19 59 145
19 60 137
19 61 224
19 62 244
19 63 137
19 64 13
19 65 25
19 66 225
19 67 30
19 68 30
19 69 184
19 70 21
19 71 161
19 72 2
19 73 4
19 74 202
19 75 152
19 76 250
19 77 213
19 78 52
19 79 48
19 80 240
19 81 200
19 82 106
19 83 226
19 84 230
19 85 58
19 86 90
19 87 222
19 88 215
19 89 38
19 90 121
20 21 22
20 22 78
20 23 25
20 24 108
20 25 197
20 26 233
20 27 133
20 28 12
20 29 65
20 30 175
20 31 155
20 32 1
20 33 13
20 34 114
20 35 122
20 36 219
20 37 250
20 38 135
20 39 9
20 40 180
20 41 180
20 42 24
20 43 140
20 44 8
20 45 239
20 46 65
20 47 23
20 48 183
20 49 68
20 50 223
20 51 31
20 52 143
20 53 105
20 54 259
20 55 179
20 56 259
20 57 254
20 58 187
20 59 7
20 60 20
20 61 215
20 62 16
20 63 29
20 64 221
20 65 106
20 66 118
20 67 135
20 68 251
20 69 63
20 70 18
20 71 91
20 72 78
20 73 106
20 74 50
20 75 239
20 76 234
20 77 202
20 78 176
20 79 57
20 80 191
20 81 157
20 82 117
20 83 158
20 84 151
20 85 243
20 86 16
20 87 149
20 88 203
20 89 2
20 90 155
21 22 121
21 23 153
21 24 266
21 25 45
21 26 199
21 27 137
21 28 189
21 29 16
21 30 111
21 31 59
21 32 18
21 33 268
21 34 243
21 35 169
21 36 1
21 37 94
21 38 41
21 39 236
21 40 123
21 41 46
21 42 193
21 43 165
21 44 94
21 45 86
21 46 262
21 47 200
21 48 110
21 49 21
21 50 23
21 51 25
21 52 223
21 53 93
21 54 187
21 55 166
21 56 184
21 57 240
21 58 99
21 59 253
21 60 45
21 61 17
21 62 69
21 63 191
21 64 227
21 65 167
21 66 37
21 67 223
21 68 129
21 69 4
21 70 55
21 71 85
21 72 160
21 73 245
21 74 265
21 75 48
21 76 186
21 77 213
21 78 182
21 79 146
21 80 212
21 81 180
21 82 245
21 83 162
21 84 129
21 85 130
21 86 165
21 87 246
21 88 126
21 89 176
21 90 48
22 23 248
22 24 161
22 25 16
22 26 64
22 27 112
22 28 24
22 29 48
22 30 164
22 31 42
22 32 179
22 33 77
22 34 227
22 35 137
22 36 149
22 37 206
22 38 86
22 39 124
22 40 240
22 41 47
22 42 28
22 43 31
22 44 70
22 45 63
22 46 115
22 47 157
22 48 259
22 49 109
22 50 181
22 51 74
22 52 30
22 53 225
22 54 34
22 55 258
22 56 69
22 57 220
22 58 269
22 59 209
22 60 2
22 61 257
22 62 209
22 63 22
22 64 60
22 65 98
22 66 18
22 67 7
22 68 19
22 69 94
22 70 93
22 71 23
22 72 22
22 73 226
22 74 132
22 75 63
22 76 78
22 77 42
22 78 98
22 79 107
22 80 268
22 81 133
22 82 148
22 83 21
22 84 201
22 85 85
22 86 231
22 87 202
22 88 232
22 89 129
22 90 184
23 24 188
23 25 62
23 26 238
23 27 64
23 28 227
23 29 182
23 30 156
23 31 228
23 32 246
23 33 18
23 34 148
23 35 105
23 36 169
23 37 27
23 38 165
23 39 47
23 40 145
23 41 151
23 42 227
23 43 5
23 44 81
23 45 184
23 46 66
23 47 59
23 48 237
23 49 77
23 50 115
23 51 172
23 52 62
23 53 147
23 54 181
23 55 33
23 56 204
23 57 103
23 58 87
23 59 166
23 60 31
23 61 82
23 62 89
23 63 250
23 64 22
23 65 196
23 66 168
23 67 111
23 68 252
23 69 19
23 70 63
23 71 241
23 72 30
23 73 67
23 74 125
23 75 180
23 76 140
23 77 228
23 78 53
23 79 52
23 80 119
23 81 19
23 82 76
23 83 172
23 84 240
23 85 243
23 86 92
23 87 140
23 88 42
23 89 98
23 90 213
24 25 193
24 26 116
24 27 0
24 28 215
24 29 236
24 30 135
24 31 156
24 32 0
24 33 48
24 34 134
24 35 269
24 36 254
24 37 158
24 38 68
24 39 216
24 40 120
24 41 268
24 42 249
24 43 197
24 44 204
24 45 118
24 46 21
24 47 187
24 48 45
24 49 225
24 50 190
24 51 26
24 52 87
24 53 157
24 54 5
24 55 141
24 56 260
24 57 232
24 58 195
24 59 43
24 60 85
24 61 152
24 62 180
24 63 76
24 64 108
24 65 77
24 66 96
24 67 145
24 68 205
24 69 179
24 70 24
24 71 95
24 72 126
24 73 197
24 74 153
24 75 182
24 76 119
24 77 86
24 78 190
24 79 4
24 80 144
24 81 40
24 82 34
24 83 147
24 84 90
24 85 198
24 86 215
24 87 239
24 88 228
24 89 121
24 90 4
25 26 189
25 27 263
25 28 134
25 29 13
25 30 224
25 31 37
25 32 220
25 33 224
25 34 66
25 35 84
25 36 79
25 37 86
25 38 45
25 39 168
25 40 225
25 41 102
25 42 2
25 43 108
25 44 3
25 45 20
25 46 63
25 47 121
25 48 246
25 49 128
25 50 266
25 51 143
25 52 201
25 53 129
25 54 200
25 55 207
25 56 4
25 57 143
25 58 55
25 59 40
25 60 175
25 61 235
25 62 146
25 63 21
25 64 193
25 65 117
25 66 187
25 67 45
25 68 218
25 69 197
25 70 79
25 71 183
25 72 65
25 73 154
25 74 69
25 75 125
25 76 230
25 77 264
25 78 140
25 79 241
25 80 102
25 81 71
25 82 265
25 83 142
25 84 88
25 85 26
25 86 15
25 87 124
25 88 177
25 89 263
25 90 5
26 27 214
26 28 174
26 29 14
26 30 129
26 31 161
26 32 163
26 33 119
26 34 59
26 35 161
26 36 35
26 37 224
26 38 260
26 39 146
26 40 121
26 41 6
26 42 95
26 43 242
26 44 34
26 45 139
26 46 96
26 47 33
26 48 220
26 49 141
26 50 88
26 51 188
26 52 164
26 53 161
26 54 236
26 55 119
26 56 197
26 57 120
26 58 139
26 59 242
26 60 21
26 61 193
26 62 106
26 63 78
26 64 238
26 65 128
26 66 129
26 67 154
26 68 93
26 69 266
26 70 215
26 71 248
26 72 267
26 73 127
26 74 91
26 75 92
26 76 145
26 77 68
26 78 77
26 79 256
26 80 79
26 81 70
26 82 125
26 83 235
26 84 85
26 85 84
26 86 144
26 87 247
26 88 161
26 89 0
26 90 116
27 28 151
27 29 212
27 30 254
27 31 113
27 32 237
27 33 45
27 34 104
27 35 235
27 36 139
27 37 21
27 38 192
27 39 18
27 40 185
27 41 63
27 42 203
27 43 185
27 44 246
27 45 14
27 46 180
27 47 210
27 48 111
27 49 219
27 50 238
27 51 17
27 52 82
27 53 66
27 54 168
27 55 102
27 56 46
27 57 126
27 58 239
27 59 49
27 60 102
27 61 77
27 62 229
27 63 183
27 64 58
27 65 15
27 66 25
27 67 1
27 68 209
27 69 128
27 70 154
27 71 88
27 72 37
27 73 234
27 74 165
27 75 118
27 76 227
27 77 65
27 78 87
27 79 243
27 80 21
27 81 187
27 82 53
27 83 140
27 84 218
27 85 210
27 86 20
27 87 0
27 88 92
27 89 98
27 90 181
28 29 165
28 30 96
28 31 33
28 32 193
28 33 230
28 34 26
28 35 127
28 36 177
28 37 2
28 38 29
28 39 60
28 40 38
28 41 221
28 42 186
28 43 198
28 44 79
28 45 65
28 46 126
28 47 112
28 48 61
28 49 23
28 50 28
28 51 130
28 52 218
28 53 104
28 54 137
28 55 207
28 56 152
28 57 49
28 58 146
28 59 268
28 60 248
28 61 134
28 62 93
28 63 250
28 64 28
28 65 115
28 66 172
28 67 30
28 68 24
28 69 53
28 70 86
28 71 252
28 72 199
28 73 233
28 74 99
28 75 197
28 76 203
28 77 62
28 78 130
28 79 265
28 80 19
28 81 161
28 82 133
28 83 216
28 84 183
28 85 112
28 86 117
28 87 193
28 88 262
28 89 242
28 90 38
29 30 64
29 31 203
29 32 160
29 33 109
29 34 34
29 35 227
29 36 232
29 37 224
29 38 97
29 39 154
29 40 181
29 41 251
29 42 21
29 43 123
29 44 8
29 45 132
29 46 96
29 47 181
29 48 141
29 49 165
29 50 24
29 51 15
29 52 255
29 53 193
29 54 129
29 55 224
29 56 36
29 57 107
29 58 44
29 59 243
29 60 15
29 61 261
29 62 182
29 63 9
29 64 178
29 65 178
29 66 196
29 67 33
29 68 13
29 69 63
29 70 83
29 71 198
29 72 166
29 73 174
29 74 170
29 75 37
29 76 223
29 77 38
29 78 184
29 79 25
29 80 63
29 81 186
29 82 9
29 83 186
29 84 86
29 85 225
29 86 167
29 87 198
29 88 152
29 89 202
29 90 98
30 31 169
30 32 171
30 33 32
30 34 170
30 35 148
30 36 160
30 37 222
30 38 36
30 39 121
30 40 81
30 41 206
30 42 198
30 43 222
30 44 249
30 45 108
30 46 180
30 47 222
30 48 213
30 49 96
30 50 250
30 51 169
30 52 220
30 53 153
30 54 168
30 55 45
30 56 22
30 57 26
30 58 229
30 59 19
30 60 4
30 61 197
30 62 208
30 63 219
30 64 3
30 65 55
30 66 236
30 67 187
30 68 168
30 69 55
30 70 266
30 71 126
30 72 23
30 73 200
30 74 111
30 75 235
30 76 138
30 77 166
30 78 92
30 79 196
30 80 243
30 81 207
30 82 89
30 83 255
30 84 152
30 85 123
30 86 134
30 87 44
30 88 112
30 89 24
30 90 185
31 32 262
31 33 16
31 34 220
31 35 69
31 36 181
31 37 175
31 38 10
31 39 76
31 40 53
31 41 235
31 42 235
31 43 12
31 44 36
31 45 159
31 46 104
31 47 12
31 48 136
31 49 208
31 50 159
31 51 49
31 52 261
31 53 234
31 54 165
31 55 45
31 56 220
31 57 61
31 58 58
31 59 200
31 60 179
31 61 118
31 62 255
31 63 107
31 64 77
31 65 140
31 66 132
31 67 134
31 68 240
31 69 24
31 70 53
31 71 167
31 72 111
31 73 239
31 74 256
31 75 163
31 76 80
31 77 263
31 78 188
31 79 231
31 80 192
31 81 178
31 82 49
31 83 227
31 84 137
31 85 203
31 86 110
31 87 171
31 88 64
31 89 258
31 90 250
32 33 241
32 34 175
32 35 213
32 36 239
32 37 178
32 38 10
32 39 214
32 40 224
32 41 191
32 42 156
32 43 120
32 44 154
32 45 160
32 46 170
32 47 141
32 48 47
32 49 42
32 50 100
32 51 187
32 52 231
32 53 53
32 54 194
32 55 189
32 56 175
32 57 45
32 58 139
32 59 226
32 60 199
32 61 257
32 62 33
32 63 75
32 64 170
32 65 205
32 66 81
32 67 240
32 68 79
32 69 197
32 70 138
32 71 82
32 72 21
32 73 207
32 74 92
32 75 48
32 76 140
32 77 161
32 78 63
32 79 72
32 80 160
32 81 259
32 82 58
32 83 63
32 84 104
32 85 50
32 86 211
32 87 20
32 88 267
32 89 239
32 90 85
33 34 67
33 35 140
33 36 20
33 37 67
33 38 51
33 39 72
33 40 58
33 41 78
33 42 188
33 43 3
33 44 255
33 45 65
33 46 102
33 47 23
33 48 249
33 49 119
33 50 27
33 51 72
33 52 156
33 53 128
33 54 127
33 55 265
33 56 109
33 57 161
33 58 153
33 59 13
33 60 21
33 61 144
33 62 158
33 63 41
33 64 247
33 65 260
33 66 219
33 67 223
33 68 222
33 69 141
33 70 255
33 71 21
33 72 169
33 73 182
33 74 259
33 75 192
33 76 212
33 77 190
33 78 144
33 79 122
33 80 68
33 81 53
33 82 123
33 83 120
33 84 227
33 85 63
33 86 117
33 87 158
33 88 262
33 89 196
33 90 247
34 35 2
34 36 150
34 37 135
34 38 192
34 39 263
34 40 223
34 41 265
34 42 112
34 43 160
34 44 262
34 45 16
34 46 170
34 47 114
34 48 28
34 49 207
34 50 182
34 51 53
34 52 32
34 53 37
34 54 179
34 55 217
34 56 135
34 57 184
34 58 141
34 59 8
34 60 172
34 61 123
34 62 3
34 63 180
34 64 114
34 65 197
34 66 182
34 67 6
34 68 156
34 69 126
34 70 39
34 71 141
34 72 118
34 73 251
34 74 71
34 75 40
34 76 75
34 77 51
34 78 200
34 79 179
34 80 28
34 81 150
34 82 98
34 83 80
34 84 215
34 85 16
34 86 152
34 87 167
34 88 27
34 89 196
34 90 54
35 36 224
35 37 187
35 38 121
35 39 155
35 40 234
35 41 261
35 42 76
35 43 118
35 44 64
35 45 217
35 46 134
35 47 96
35 48 58
35 49 23
35 50 226
35 51 162
35 52 222
35 53 97
35 54 34
35 55 160
35 56 79
35 57 119
35 58 192
35 59 136
35 60 16
35 61 28
35 62 212
35 63 248
35 64 38
35 65 125
35 66 0
35 67 26
35 68 183
35 69 17
35 70 240
35 71 119
35 72 257
35 73 92
35 74 70
35 75 158
35 76 131
35 77 103
35 78 250
35 79 208
35 80 212
35 81 214
35 82 87
35 83 72
35 84 207
35 85 155
35 86 129
35 87 150
35 88 186
35 89 155
35 90 107
36 37 256
36 38 127
36 39 198
36 40 260
36 41 127
36 42 4
36 43 107
36 44 232
36 45 196
36 46 221
36 47 20
36 48 52
36 49 256
36 50 259
36 51 83
36 52 192
36 53 113
36 54 255
36 55 184
36 56 46
36 57 173
36 58 191
36 59 144
36 60 2
36 61 59
36 62 17
36 63 196
36 64 137
36 65 202
36 66 50
36 67 238
36 68 232
36 69 154
36 70 192
36 71 256
36 72 35
36 73 235
36 74 148
36 75 65
36 76 27
36 77 174
36 78 217
36 79 245
36 80 35
36 81 253
36 82 108
36 83 30
36 84 76
36 85 176
36 86 41
36 87 103
36 88 82
36 89 190
36 90 266
37 38 7
37 39 96
37 40 235
37 41 154
37 42 263
37 43 119
37 44 147
37 45 66
37 46 146
37 47 14
37 48 78
37 49 17
37 50 107
37 51 188
37 52 111
37 53 102
37 54 107
37 55 92
37 56 139
37 57 210
37 58 123
37 59 154
37 60 73
37 61 178
37 62 59
37 63 21
37 64 76
37 65 188
37 66 145
37 67 155
37 68 157
37 69 249
37 70 164
37 71 105
37 72 252
37 73 8
37 74 237
37 75 258
37 76 89
37 77 249
37 78 21
37 79 222
37 80 98
37 81 26
37 82 171
37 83 206
37 84 64
37 85 246
37 86 48
37 87 267
37 88 221
37 89 78
37 90 235
38 39 5
38 40 168
38 41 55
38 42 173
38 43 203
38 44 151
38 45 191
38 46 127
38 47 80
38 48 149
38 49 26
38 50 257
38 51 172
38 52 128
38 53 72
38 54 153
38 55 43
38 56 246
38 57 231
38 58 217
38 59 23
38 60 130
38 61 17
38 62 185
38 63 81
38 64 38
38 65 100
38 66 254
38 67 1
38 68 243
38 69 253
38 70 56
38 71 48
38 72 161
38 73 194
38 74 121
38 75 143
38 76 81
38 77 26
38 78 198
38 79 192
38 80 112
38 81 199
38 82 163
38 83 66
38 84 207
38 85 141
38 86 37
38 87 213
38 88 114
38 89 89
38 90 185
39 40 209
39 41 231
39 42 101
39 43 24
39 44 73
39 45 230
39 46 190
39 47 102
39 48 84
39 49 268
39 50 4
39 51 10
39 52 100
39 53 37
39 54 131
39 55 148
39 56 13
39 57 104
39 58 196
39 59 145
39 60 229
39 61 35
39 62 67
39 63 50
39 64 123
39 65 170
39 66 254
39 67 16
39 68 255
39 69 163
39 70 14
39 71 258
39 72 154
39 73 261
39 74 205
39 75 237
39 76 110
39 77 88
39 78 212
39 79 4
39 80 101
39 81 174
39 82 82
39 83 52
39 84 185
39 85 258
39 86 240
39 87 15
39 88 49
39 89 122
39 90 68
40 41 198
40 42 238
40 43 77
40 44 180
40 45 188
40 46 87
40 47 158
40 48 23
40 49 47
40 50 191
40 51 103
40 52 176
40 53 205
40 54 263
40 55 48
40 56 126
40 57 219
40 58 85
40 59 77
40 60 113
40 61 88
40 62 100
40 63 195
40 64 29
40 65 229
40 66 134
40 67 120
40 68 91
40 69 265
40 70 49
40 71 74
40 72 58
40 73 207
40 74 17
40 75 119
40 76 62
40 77 0
40 78 152
40 79 96
40 80 226
40 81 105
40 82 74
40 83 189
40 84 61
40 85 85
40 86 230
40 87 196
40 88 231
40 89 78
40 90 113
41 42 69
41 43 151
41 44 177
41 45 197
41 46 260
41 47 22
41 48 188
41 49 39
41 50 18
41 51 93
41 52 77
41 53 29
41 54 38
41 55 155
41 56 40
41 57 210
41 58 57
41 59 252
41 60 165
41 61 116
41 62 133
41 63 7
41 64 175
41 65 61
41 66 90
41 67 169
41 68 49
41 69 152
41 70 21
41 71 257
41 72 106
41 73 15
41 74 55
41 75 12
41 76 162
41 77 98
41 78 6
41 79 47
41 80 46
41 81 223
41 82 20
41 83 106
41 84 14
41 85 103
41 86 81
41 87 48
41 88 214
41 89 36
41 90 95
42 43 15
42 44 256
42 45 0
42 46 201
42 47 11
42 48 162
42 49 117
42 50 242
42 51 37
42 52 123
42 53 260
42 54 114
42 55 137
42 56 260
42 57 23
42 58 60
42 59 16
42 60 207
42 61 86
42 62 100
42 63 176
42 64 29
42 65 109
42 66 0
42 67 168
42 68 120
42 69 156
42 70 252
42 71 121
42 72 11
42 73 136
42 74 170
42 75 12
42 76 123
42 77 245
42 78 110
42 79 31
42 80 208
42 81 161
42 82 218
42 83 13
42 84 170
42 85 163
42 86 112
42 87 67
42 88 90
42 89 239
42 90 82
43 44 78
43 45 96
43 46 170
43 47 249
43 48 136
43 49 82
43 50 140
43 51 79
43 52 46
43 53 112
43 54 242
43 55 255
43 56 251
43 57 238
43 58 227
43 59 192
43 60 172
43 61 199
43 62 74
43 63 193
43 64 142
43 65 160
43 66 119
43 67 17
43 68 191
43 69 22
43 70 127
43 71 244
43 72 152
43 73 199
43 74 155
43 75 14
43 76 216
43 77 15
43 78 38
43 79 187
43 80 108
43 81 265
43 82 251
43 83 183
43 84 9
43 85 35
43 86 170
43 87 58
43 88 223
43 89 133
43 90 234
44 45 175
44 46 213
44 47 70
44 48 72
44 49 226
44 50 94
44 51 10
44 52 199
44 53 144
44 54 217
44 55 176
44 56 234
44 57 22
44 58 212
44 59 232
44 60 178
44 61 206
44 62 89
44 63 52
44 64 109
44 65 101
44 66 88
44 67 111
44 68 90
44 69 231
44 70 78
44 71 20
44 72 98
44 73 206
44 74 188
44 75 269
44 76 208
44 77 214
44 78 241
44 79 110
44 80 120
44 81 56
44 82 189
44 83 253
44 84 50
44 85 128
44 86 45
44 87 217
44 88 112
44 89 232
44 90 119
45 46 74
45 47 57
45 48 191
45 49 259
45 50 53
45 51 59
45 52 109
45 53 260
45 54 264
45 55 173
45 56 115
45 57 63
45 58 158
45 59 55
45 60 114
45 61 185
45 62 213
45 63 188
45 64 151
45 65 240
45 66 82
45 67 101
45 68 146
45 69 110
45 70 121
45 71 19
45 72 149
45 73 16
45 74 19
45 75 257
45 76 54
45 77 172
45 78 181
45 79 195
45 80 244
45 81 175
45 82 129
45 83 20
45 84 214
45 85 128
45 86 124
45 87 218
45 88 210
45 89 52
45 90 10
46 47 28
46 48 181
46 49 180
46 50 114
46 51 99
46 52 201
46 53 184
46 54 73
46 55 235
46 56 185
46 57 111
46 58 93
46 59 132
46 60 100
46 61 73
46 62 216
46 63 9
46 64 21
46 65 56
46 66 181
46 67 31
46 68 179
46 69 9
46 70 243
46 71 33
46 72 59
46 73 260
46 74 162
46 75 53
46 76 36
46 77 169
46 78 21
46 79 57
46 80 93
46 81 147
46 82 222
46 83 238
46 84 156
46 85 227
46 86 100
46 87 215
46 88 125
46 89 69
46 90 185
47 48 154
47 49 221
47 50 4
47 51 157
47 52 147
47 53 70
47 54 170
47 55 15
47 56 110
47 57 222
47 58 34
47 59 203
47 60 215
47 61 170
47 62 32
47 63 63
47 64 237
47 65 169
47 66 54
47 67 209
47 68 167
47 69 101
47 70 171
47 71 232
47 72 199
47 73 128
47 74 251
47 75 118
47 76 261
47 77 77
47 78 56
47 79 37
47 80 75
47 81 8
47 82 149
47 83 253
47 84 257
47 85 184
47 86 190
47 87 68
47 88 24
47 89 29
47 90 233
48 49 25
48 50 171
48 51 56
48 52 216
48 53 245
48 54 264
48 55 45
48 56 174
48 57 51
48 58 32
48 59 28
48 60 61
48 61 141
48 62 184
48 63 83
48 64 104
48 65 107
48 66 16
48 67 257
48 68 34
48 69 245
48 70 104
48 71 78
48 72 248
48 73 148
48 74 6
48 75 196
48 76 27
48 77 47
48 78 146
48 79 159
48 80 199
48 81 195
48 82 32
48 83 53
48 84 26
48 85 50
48 86 24
48 87 51
48 88 42
48 89 85
48 90 116
49 50 37
49 51 16
49 52 262
49 53 59
49 54 70
49 55 42
49 56 199
49 57 117
49 58 25
49 59 82
49 60 35
49 61 231
49 62 212
49 63 176
49 64 159
49 65 44
49 66 59
49 67 269
49 68 13
49 69 77
49 70 156
49 71 181
49 72 106
49 73 6
49 74 174
49 75 224
49 76 22
49 77 73
49 78 56
49 79 43
49 80 23
49 81 32
49 82 51
49 83 40
49 84 90
49 85 34
49 86 145
49 87 103
49 88 254
49 89 83
49 90 94
50 51 241
50 52 67
50 53 142
50 54 236
50 55 212
50 56 217
50 57 178
50 58 90
50 59 144
50 60 37
50 61 259
50 62 175
50 63 1
50 64 128
50 65 115
50 66 85
50 67 114
50 68 244
50 69 207
50 70 9
50 71 70
50 72 144
50 73 206
50 74 124
50 75 24
50 76 76
50 77 18
50 78 17
50 79 238
50 80 266
50 81 156
50 82 37
50 83 195
50 84 256
50 85 36
50 86 129
50 87 251
50 88 160
50 89 13
50 90 115
51 52 119
51 53 147
51 54 24
51 55 21
51 56 172
51 57 42
51 58 36
51 59 171
51 60 112
51 61 85
51 62 244
51 63 33
51 64 86
51 65 5
51 66 16
51 67 171
51 68 198
51 69 163
51 70 64
51 71 57
51 72 81
51 73 22
51 74 119
51 75 169
51 76 0
51 77 116
51 78 33
51 79 91
51 80 96
51 81 228
51 82 210
51 83 186
51 84 97
51 85 242
51 86 6
51 87 226
51 88 121
51 89 154
51 90 93
52 53 49
52 54 0
52 55 172
52 56 224
52 57 81
52 58 107
52 59 203
52 60 160
52 61 27
52 62 180
52 63 198
52 64 10
52 65 46
52 66 44
52 67 167
52 68 105
52 69 124
52 70 149
52 71 28
52 72 62
52 73 101
52 74 7
52 75 18
52 76 157
52 77 164
52 78 131
52 79 220
52 80 268
52 81 208
52 82 187
52 83 254
52 84 70
52 85 64
52 86 222
52 87 81
52 88 149
52 89 251
52 90 186
53 54 33
53 55 83
53 56 63
53 57 63
53 58 69
53 59 12
53 60 62
53 61 112
53 62 77
53 63 97
53 64 119
53 65 261
53 66 239
53 67 191
53 68 159
53 69 173
53 70 29
53 71 76
53 72 88
53 73 95
53 74 205
53 75 214
53 76 210
53 77 250
53 78 54
53 79 194
53 80 30
53 81 236
53 82 1
53 83 148
53 84 228
53 85 85
53 86 254
53 87 125
53 88 112
53 89 32
53 90 31
54 55 209
54 56 67
54 57 156
54 58 39
54 59 130
54 60 43
54 61 168
54 62 50
54 63 247
54 64 51
54 65 121
54 66 191
54 67 247
54 68 44
54 69 93
54 70 163
54 71 70
54 72 121
54 73 78
54 74 24
54 75 151
54 76 172
54 77 190
54 78 211
54 79 34
54 80 33
54 81 51
54 82 250
54 83 75
54 84 258
54 85 247
54 86 44
54 87 8
54 88 220
54 89 257
54 90 175
55 56 148
55 57 129
55 58 20
55 59 45
55 60 55
55 61 66
55 62 212
55 63 245
55 64 67
55 65 216
55 66 187
55 67 2
55 68 98
55 69 111
55 70 143
55 71 179
55 72 139
55 73 151
55 74 72
55 75 165
55 76 31
55 77 65
55 78 112
55 79 262
55 80 254
55 81 193
55 82 80
55 83 110
55 84 66
55 85 1
55 86 214
55 87 169
55 88 129
55 89 260
55 90 207
56 57 41
56 58 120
56 59 213
56 60 38
56 61 245
56 62 162
56 63 66
56 64 124
56 65 196
56 66 37
56 67 132
56 68 192
56 69 152
56 70 159
56 71 166
56 72 25
56 73 108
56 74 249
56 75 138
56 76 90
56 77 142
56 78 261
56 79 130
56 80 112
56 81 224
56 82 234
56 83 63
56 84 79
56 85 132
56 86 266
56 87 243
56 88 50
56 89 216
56 90 21
57 58 10
57 59 93
57 60 149
57 61 65
57 62 178
57 63 248
57 64 116
57 65 177
57 66 260
57 67 72
57 68 138
57 69 40
57 70 102
57 71 139
57 72 195
57 73 252
57 74 174
57 75 107
57 76 109
57 77 109
57 78 51
57 79 211
57 80 204
57 81 91
57 82 223
57 83 113
57 84 121
57 85 25
57 86 87
57 87 209
57 88 101
57 89 100
57 90 260
58 59 206
58 60 118
58 61 174
58 62 149
58 63 138
58 64 161
58 65 117
58 66 249
58 67 223
58 68 110
58 69 117
58 70 15
58 71 48
58 72 195
58 73 96
58 74 193
58 75 205
58 76 171
58 77 135
58 78 208
58 79 175
58 80 217
58 81 62
58 82 85
58 83 70
58 84 127
58 85 220
58 86 27
58 87 59
58 88 112
58 89 101
58 90 63
59 60 133
59 61 120
59 62 135
59 63 81
59 64 132
59 65 179
59 66 246
59 67 31
59 68 79
59 69 225
59 70 251
59 71 2
59 72 29
59 73 221
59 74 229
59 75 28
59 76 164
59 77 125
59 78 265
59 79 121
59 80 132
59 81 123
59 82 241
59 83 82
59 84 80
59 85 223
59 86 258
59 87 256
59 88 82
59 89 219
59 90 8
60 61 98
60 62 77
60 63 243
60 64 144
60 65 47
60 66 175
60 67 176
60 68 39
60 69 21
60 70 157
60 71 248
60 72 40
60 73 174
60 74 9
60 75 54
60 76 226
60 77 134
60 78 78
60 79 251
60 80 81
60 81 204
60 82 40
60 83 24
60 84 126
60 85 26
60 86 249
60 87 145
60 88 58
60 89 261
60 90 172
61 62 110
61 63 136
61 64 10
61 65 60
61 66 265
61 67 58
61 68 19
61 69 109
61 70 23
61 71 98
61 72 174
61 73 234
61 74 161
61 75 154
61 76 44
61 77 152
61 78 129
61 79 33
61 80 167
61 81 201
61 82 139
61 83 164
61 84 267
61 85 68
61 86 187
61 87 90
61 88 39
61 89 224
61 90 74
62 63 15
62 64 244
62 65 106
62 66 171
62 67 22
62 68 109
62 69 122
62 70 18
62 71 17
62 72 118
62 73 247
62 74 107
62 75 149
62 76 135
62 77 246
62 78 236
62 79 241
62 80 50
62 81 153
62 82 17
62 83 95
62 84 57
62 85 160
62 86 220
62 87 78
62 88 218
62 89 153
62 90 80
63 64 181
63 65 74
63 66 7
63 67 77
63 68 132
63 69 248
63 70 9
63 71 193
63 72 242
63 73 194
63 74 139
63 75 11
63 76 36
63 77 206
63 78 226
63 79 110
63 80 265
63 81 174
63 82 182
63 83 60
63 84 71
63 85 218
63 86 255
63 87 201
63 88 94
63 89 171
63 90 101
64 65 100
64 66 18
64 67 257
64 68 120
64 69 89
64 70 267
64 71 56
64 72 135
64 73 202
64 74 161
64 75 197
64 76 198
64 77 134
64 78 230
64 79 202
64 80 87
64 81 200
64 82 21
64 83 144
64 84 28
64 85 183
64 86 26
64 87 18
64 88 109
64 89 111
64 90 144
65 66 150
65 67 18
65 68 172
65 69 52
65 70 86
65 71 12
65 72 12
65 73 200
65 74 243
65 75 253
65 76 32
65 77 235
65 78 229
65 79 118
65 80 87
65 81 96
65 82 71
65 83 233
65 84 193
65 85 99
65 86 197
65 87 150
65 88 126
65 89 123
65 90 200
66 67 194
66 68 1
66 69 32
66 70 115
66 71 234
66 72 201
66 73 142
66 74 28
66 75 127
66 76 222
66 77 267
66 78 99
66 79 118
66 80 127
66 81 65
66 82 32
66 83 107
66 84 5
66 85 59
66 86 121
66 87 40
66 88 174
66 89 265
66 90 163
67 68 251
67 69 109
67 70 109
67 71 60
67 72 251
67 73 48
67 74 175
67 75 90
67 76 30
67 77 206
67 78 256
67 79 155
67 80 107
67 81 146
67 82 178
67 83 19
67 84 143
67 85 174
67 86 239
67 87 182
67 88 75
67 89 62
67 90 76
68 69 70
68 70 185
68 71 201
68 72 23
68 73 205
68 74 179
68 75 141
68 76 117
68 77 261
68 78 103
68 79 210
68 80 61
68 81 29
68 82 233
68 83 95
68 84 10
68 85 154
68 86 52
68 87 163
68 88 206
68 89 245
68 90 21
69 70 111
69 71 258
69 72 141
69 73 102
69 74 163
69 75 156
69 76 149
69 77 166
69 78 192
69 79 91
69 80 176
69 81 3
69 82 229
69 83 261
69 84 136
69 85 254
69 86 87
69 87 96
69 88 154
69 89 239
69 90 131
70 71 145
70 72 48
70 73 53
70 74 169
70 75 50
70 76 111
70 77 137
70 78 146
70 79 150
70 80 186
70 81 165
70 82 192
70 83 106
70 84 107
70 85 34
70 86 41
70 87 160
70 88 136
70 89 60
70 90 219
71 72 97
71 73 65
71 74 32
71 75 32
71 76 127
71 77 7
71 78 194
71 79 33
71 80 103
71 81 219
71 82 12
71 83 264
71 84 45
71 85 240
71 86 28
71 87 12
71 88 268
71 89 231
71 90 138
72 73 229
72 74 40
72 75 152
72 76 245
72 77 73
72 78 171
72 79 44
72 80 123
72 81 32
72 82 10
72 83 267
72 84 240
72 85 60
72 86 176
72 87 47
72 88 259
72 89 253
72 90 144
73 74 174
73 75 74
73 76 124
73 77 176
73 78 246
73 79 124
73 80 141
73 81 128
73 82 265
73 83 147
73 84 150
73 85 233
73 86 71
73 87 260
73 88 209
73 89 220
73 90 59
74 75 150
74 76 129
74 77 172
74 78 257
74 79 129
74 80 151
74 81 34
74 82 167
74 83 98
74 84 114
74 85 223
74 86 263
74 87 113
74 88 192
74 89 36
74 90 232
75 76 248
75 77 221
75 78 107
75 79 15
75 80 242
75 81 4
75 82 209
75 83 229
75 84 106
75 85 213
75 86 139
75 87 206
75 88 251
75 89 245
75 90 265
76 77 231
76 78 240
76 79 209
76 80 56
76 81 70
76 82 131
76 83 181
76 84 15
76 85 263
76 86 240
76 87 176
76 88 130
76 89 256
76 90 258
77 78 130
77 79 72
77 80 170
77 81 78
77 82 49
77 83 197
77 84 77
77 85 170
77 86 177
77 87 135
77 88 141
77 89 129
77 90 37
78 79 47
78 80 119
78 81 190
78 82 184
78 83 122
78 84 184
78 85 97
78 86 216
78 87 267
78 88 16
78 89 267
78 90 98
79 80 127
79 81 91
79 82 71
79 83 158
79 84 44
79 85 128
79 86 249
79 87 204
79 88 29
79 89 27
79 90 90
80 81 159
80 82 18
80 83 5
80 84 202
80 85 42
80 86 177
80 87 9
80 88 268
80 89 226
80 90 139
81 82 88
81 83 151
81 84 76
81 85 29
81 86 55
81 87 29
81 88 86
81 89 170
81 90 262
82 83 196
82 84 206
82 85 197
82 86 157
82 87 221
82 88 124
82 89 248
82 90 67
83 84 128
83 85 81
83 86 147
83 87 148
83 88 222
83 89 251
83 90 42
84 85 231
84 86 106
84 87 4
84 88 231
84 89 201
84 90 46
85 86 51
85 87 149
85 88 234
85 89 222
85 90 79
86 87 129
86 88 11
86 89 251
86 90 107
87 88 15
87 89 144
87 90 148
88 89 229
88 90 125
89 90 115
